50
    82    62    38    22    74    53    10    65    38    82    74    26    63    40    29    67    80    81    61    62    58    27    49     4     9    65    61   100    84    47    58    72    75    92    89    59    16    83    94    14    80    69     6     8    81    65    46    25    74    52
     7     4     3     2     6    10     9     3    10    10     3    10     4     2     3     5     6     8     2     3     4     5     3     4     1     4     5     5     9     4     2     5     5     2     9     8     6     7     5     5     3     8     8     8     7     1     4     7     5     4
   447   460  1571  1104  1214     0  1829   640  1131  1061  1099     0  1314  1339  1085  1612    96  1436     0  1283  1415     0  1069     0  2448     0  2014  2023  1995  1747   204  2417  1959  1807   941     0  1888   446  1502     0   449  1385  1619  2222  1054   776  1481  2271  2249     0
